p cnf 150 2540
1 2 3 4 5 0
6 7 8 9 10 0
11 12 13 14 15 0
16 17 18 19 20 0
21 22 23 24 25 0
26 27 28 29 30 0
31 32 33 34 35 0
36 37 38 39 40 0
41 42 43 44 45 0
46 47 48 49 50 0
51 52 53 54 55 0
56 57 58 59 60 0
61 62 63 64 65 0
66 67 68 69 70 0
71 72 73 74 75 0
76 77 78 79 80 0
81 82 83 84 85 0
86 87 88 89 90 0
91 92 93 94 95 0
96 97 98 99 100 0
101 102 103 104 105 0
106 107 108 109 110 0
111 112 113 114 115 0
116 117 118 119 120 0
121 122 123 124 125 0
126 127 128 129 130 0
131 132 133 134 135 0
136 137 138 139 140 0
141 142 143 144 145 0
146 147 148 149 150 0
-1 -2 0
-1 -3 0
-1 -4 0
-1 -5 0
-2 -3 0
-2 -4 0
-2 -5 0
-3 -4 0
-3 -5 0
-4 -5 0
-6 -7 0
-6 -8 0
-6 -9 0
-6 -10 0
-7 -8 0
-7 -9 0
-7 -10 0
-8 -9 0
-8 -10 0
-9 -10 0
-11 -12 0
-11 -13 0
-11 -14 0
-11 -15 0
-12 -13 0
-12 -14 0
-12 -15 0
-13 -14 0
-13 -15 0
-14 -15 0
-16 -17 0
-16 -18 0
-16 -19 0
-16 -20 0
-17 -18 0
-17 -19 0
-17 -20 0
-18 -19 0
-18 -20 0
-19 -20 0
-21 -22 0
-21 -23 0
-21 -24 0
-21 -25 0
-22 -23 0
-22 -24 0
-22 -25 0
-23 -24 0
-23 -25 0
-24 -25 0
-26 -27 0
-26 -28 0
-26 -29 0
-26 -30 0
-27 -28 0
-27 -29 0
-27 -30 0
-28 -29 0
-28 -30 0
-29 -30 0
-31 -32 0
-31 -33 0
-31 -34 0
-31 -35 0
-32 -33 0
-32 -34 0
-32 -35 0
-33 -34 0
-33 -35 0
-34 -35 0
-36 -37 0
-36 -38 0
-36 -39 0
-36 -40 0
-37 -38 0
-37 -39 0
-37 -40 0
-38 -39 0
-38 -40 0
-39 -40 0
-41 -42 0
-41 -43 0
-41 -44 0
-41 -45 0
-42 -43 0
-42 -44 0
-42 -45 0
-43 -44 0
-43 -45 0
-44 -45 0
-46 -47 0
-46 -48 0
-46 -49 0
-46 -50 0
-47 -48 0
-47 -49 0
-47 -50 0
-48 -49 0
-48 -50 0
-49 -50 0
-51 -52 0
-51 -53 0
-51 -54 0
-51 -55 0
-52 -53 0
-52 -54 0
-52 -55 0
-53 -54 0
-53 -55 0
-54 -55 0
-56 -57 0
-56 -58 0
-56 -59 0
-56 -60 0
-57 -58 0
-57 -59 0
-57 -60 0
-58 -59 0
-58 -60 0
-59 -60 0
-61 -62 0
-61 -63 0
-61 -64 0
-61 -65 0
-62 -63 0
-62 -64 0
-62 -65 0
-63 -64 0
-63 -65 0
-64 -65 0
-66 -67 0
-66 -68 0
-66 -69 0
-66 -70 0
-67 -68 0
-67 -69 0
-67 -70 0
-68 -69 0
-68 -70 0
-69 -70 0
-71 -72 0
-71 -73 0
-71 -74 0
-71 -75 0
-72 -73 0
-72 -74 0
-72 -75 0
-73 -74 0
-73 -75 0
-74 -75 0
-76 -77 0
-76 -78 0
-76 -79 0
-76 -80 0
-77 -78 0
-77 -79 0
-77 -80 0
-78 -79 0
-78 -80 0
-79 -80 0
-81 -82 0
-81 -83 0
-81 -84 0
-81 -85 0
-82 -83 0
-82 -84 0
-82 -85 0
-83 -84 0
-83 -85 0
-84 -85 0
-86 -87 0
-86 -88 0
-86 -89 0
-86 -90 0
-87 -88 0
-87 -89 0
-87 -90 0
-88 -89 0
-88 -90 0
-89 -90 0
-91 -92 0
-91 -93 0
-91 -94 0
-91 -95 0
-92 -93 0
-92 -94 0
-92 -95 0
-93 -94 0
-93 -95 0
-94 -95 0
-96 -97 0
-96 -98 0
-96 -99 0
-96 -100 0
-97 -98 0
-97 -99 0
-97 -100 0
-98 -99 0
-98 -100 0
-99 -100 0
-101 -102 0
-101 -103 0
-101 -104 0
-101 -105 0
-102 -103 0
-102 -104 0
-102 -105 0
-103 -104 0
-103 -105 0
-104 -105 0
-106 -107 0
-106 -108 0
-106 -109 0
-106 -110 0
-107 -108 0
-107 -109 0
-107 -110 0
-108 -109 0
-108 -110 0
-109 -110 0
-111 -112 0
-111 -113 0
-111 -114 0
-111 -115 0
-112 -113 0
-112 -114 0
-112 -115 0
-113 -114 0
-113 -115 0
-114 -115 0
-116 -117 0
-116 -118 0
-116 -119 0
-116 -120 0
-117 -118 0
-117 -119 0
-117 -120 0
-118 -119 0
-118 -120 0
-119 -120 0
-121 -122 0
-121 -123 0
-121 -124 0
-121 -125 0
-122 -123 0
-122 -124 0
-122 -125 0
-123 -124 0
-123 -125 0
-124 -125 0
-126 -127 0
-126 -128 0
-126 -129 0
-126 -130 0
-127 -128 0
-127 -129 0
-127 -130 0
-128 -129 0
-128 -130 0
-129 -130 0
-131 -132 0
-131 -133 0
-131 -134 0
-131 -135 0
-132 -133 0
-132 -134 0
-132 -135 0
-133 -134 0
-133 -135 0
-134 -135 0
-136 -137 0
-136 -138 0
-136 -139 0
-136 -140 0
-137 -138 0
-137 -139 0
-137 -140 0
-138 -139 0
-138 -140 0
-139 -140 0
-141 -142 0
-141 -143 0
-141 -144 0
-141 -145 0
-142 -143 0
-142 -144 0
-142 -145 0
-143 -144 0
-143 -145 0
-144 -145 0
-146 -147 0
-146 -148 0
-146 -149 0
-146 -150 0
-147 -148 0
-147 -149 0
-147 -150 0
-148 -149 0
-148 -150 0
-149 -150 0
-5 -51 0
-4 -51 0
-5 -55 0
-1 -51 0
-5 -52 0
-2 -53 0
-4 -55 0
-5 -54 0
-1 -55 0
-3 -52 0
-3 -55 0
-1 -53 0
-3 -53 0
-1 -52 0
-4 -52 0
-3 -54 0
-2 -54 0
-2 -72 0
-1 -74 0
-4 -75 0
-5 -74 0
-2 -74 0
-4 -74 0
-4 -73 0
-3 -75 0
-2 -73 0
-2 -71 0
-3 -73 0
-5 -72 0
-1 -72 0
-4 -72 0
-1 -75 0
-5 -71 0
-3 -71 0
-1 -90 0
-1 -89 0
-3 -88 0
-3 -89 0
-5 -89 0
-4 -87 0
-3 -86 0
-1 -88 0
-1 -86 0
-2 -88 0
-4 -89 0
-5 -88 0
-2 -86 0
-5 -86 0
-3 -87 0
-2 -90 0
-3 -90 0
-5 -110 0
-1 -106 0
-1 -110 0
-3 -108 0
-5 -106 0
-4 -108 0
-1 -109 0
-3 -107 0
-2 -108 0
-5 -107 0
-2 -106 0
-2 -107 0
-4 -106 0
-4 -107 0
-1 -107 0
-5 -108 0
-3 -106 0
-2 -111 0
-1 -113 0
-4 -111 0
-4 -115 0
-1 -115 0
-3 -115 0
-2 -113 0
-5 -111 0
-3 -112 0
-2 -114 0
-4 -114 0
-5 -112 0
-5 -114 0
-5 -113 0
-1 -114 0
-4 -112 0
-2 -112 0
-3 -119 0
-4 -117 0
-3 -117 0
-5 -116 0
-4 -118 0
-5 -118 0
-2 -120 0
-5 -119 0
-2 -118 0
-1 -117 0
-1 -118 0
-2 -116 0
-2 -117 0
-1 -119 0
-3 -116 0
-4 -119 0
-1 -120 0
-4 -122 0
-5 -122 0
-1 -124 0
-2 -125 0
-3 -125 0
-2 -123 0
-3 -123 0
-3 -124 0
-4 -123 0
-2 -121 0
-3 -121 0
-5 -124 0
-1 -125 0
-1 -121 0
-1 -122 0
-1 -123 0
-4 -121 0
-6 -28 0
-10 -29 0
-9 -26 0
-10 -26 0
-9 -27 0
-7 -28 0
-6 -26 0
-9 -30 0
-6 -27 0
-10 -30 0
-7 -27 0
-8 -26 0
-8 -27 0
-8 -30 0
-7 -26 0
-7 -30 0
-8 -28 0
-6 -89 0
-7 -89 0
-7 -87 0
-9 -87 0
-10 -87 0
-9 -89 0
-8 -88 0
-6 -86 0
-7 -90 0
-8 -89 0
-7 -86 0
-6 -87 0
-10 -88 0
-9 -90 0
-7 -88 0
-10 -89 0
-6 -90 0
-8 -93 0
-9 -92 0
-8 -91 0
-6 -94 0
-7 -95 0
-7 -94 0
-9 -93 0
-7 -91 0
-9 -95 0
-10 -91 0
-6 -92 0
-7 -92 0
-6 -91 0
-7 -93 0
-6 -93 0
-10 -93 0
-8 -95 0
-8 -102 0
-9 -102 0
-10 -102 0
-10 -105 0
-10 -101 0
-7 -103 0
-7 -101 0
-6 -101 0
-7 -105 0
-6 -104 0
-8 -103 0
-6 -103 0
-10 -104 0
-8 -104 0
-10 -103 0
-9 -105 0
-7 -102 0
-8 -132 0
-9 -135 0
-8 -134 0
-7 -132 0
-10 -133 0
-9 -133 0
-6 -132 0
-6 -135 0
-8 -131 0
-6 -134 0
-8 -133 0
-6 -133 0
-9 -134 0
-10 -134 0
-10 -135 0
-10 -132 0
-6 -131 0
-13 -24 0
-15 -24 0
-13 -22 0
-13 -21 0
-12 -22 0
-15 -22 0
-14 -24 0
-15 -21 0
-14 -22 0
-11 -25 0
-11 -23 0
-15 -23 0
-14 -21 0
-13 -25 0
-12 -25 0
-14 -23 0
-11 -24 0
-15 -30 0
-13 -30 0
-12 -26 0
-15 -27 0
-15 -28 0
-11 -29 0
-11 -28 0
-12 -27 0
-15 -26 0
-13 -26 0
-14 -30 0
-11 -27 0
-13 -27 0
-14 -28 0
-14 -27 0
-12 -30 0
-13 -29 0
-11 -40 0
-14 -36 0
-11 -36 0
-13 -39 0
-11 -37 0
-15 -37 0
-13 -38 0
-14 -40 0
-11 -39 0
-15 -39 0
-13 -37 0
-12 -37 0
-12 -40 0
-15 -38 0
-14 -37 0
-14 -38 0
-13 -40 0
-12 -45 0
-12 -43 0
-15 -42 0
-13 -41 0
-15 -45 0
-14 -43 0
-12 -42 0
-14 -41 0
-13 -44 0
-12 -41 0
-15 -43 0
-11 -41 0
-15 -44 0
-14 -44 0
-14 -45 0
-12 -44 0
-11 -42 0
-11 -71 0
-12 -72 0
-15 -73 0
-15 -71 0
-12 -74 0
-11 -73 0
-12 -71 0
-14 -71 0
-12 -73 0
-14 -75 0
-15 -75 0
-14 -72 0
-13 -72 0
-15 -72 0
-13 -74 0
-13 -73 0
-11 -75 0
-13 -81 0
-15 -83 0
-15 -82 0
-14 -84 0
-13 -85 0
-13 -82 0
-14 -81 0
-14 -85 0
-15 -84 0
-12 -83 0
-15 -85 0
-12 -82 0
-12 -81 0
-11 -82 0
-11 -81 0
-14 -82 0
-11 -83 0
-15 -107 0
-13 -107 0
-13 -106 0
-12 -110 0
-13 -110 0
-13 -109 0
-11 -107 0
-14 -107 0
-15 -106 0
-12 -107 0
-12 -108 0
-14 -108 0
-14 -110 0
-14 -109 0
-15 -108 0
-13 -108 0
-11 -109 0
-11 -116 0
-14 -118 0
-12 -118 0
-13 -120 0
-13 -116 0
-13 -118 0
-14 -116 0
-12 -117 0
-13 -119 0
-12 -119 0
-13 -117 0
-15 -119 0
-11 -117 0
-11 -120 0
-15 -117 0
-15 -118 0
-14 -117 0
-15 -132 0
-14 -134 0
-11 -134 0
-14 -135 0
-13 -132 0
-12 -133 0
-11 -133 0
-15 -134 0
-13 -131 0
-15 -131 0
-14 -133 0
-13 -135 0
-13 -133 0
-15 -133 0
-14 -132 0
-15 -135 0
-11 -131 0
-15 -141 0
-12 -141 0
-14 -145 0
-11 -143 0
-14 -144 0
-11 -144 0
-11 -145 0
-13 -142 0
-13 -141 0
-12 -145 0
-11 -142 0
-15 -142 0
-12 -144 0
-14 -141 0
-13 -143 0
-15 -144 0
-11 -141 0
-20 -27 0
-18 -26 0
-20 -30 0
-20 -29 0
-18 -29 0
-18 -30 0
-17 -30 0
-19 -29 0
-19 -30 0
-20 -26 0
-17 -28 0
-16 -29 0
-18 -28 0
-16 -30 0
-18 -27 0
-19 -28 0
-20 -28 0
-19 -38 0
-16 -40 0
-20 -37 0
-20 -38 0
-17 -37 0
-16 -38 0
-19 -37 0
-17 -40 0
-17 -36 0
-16 -39 0
-16 -36 0
-20 -36 0
-16 -37 0
-18 -40 0
-18 -38 0
-19 -39 0
-20 -39 0
-19 -52 0
-19 -51 0
-16 -54 0
-17 -55 0
-20 -53 0
-18 -54 0
-18 -51 0
-20 -54 0
-18 -55 0
-17 -53 0
-18 -53 0
-17 -52 0
-19 -54 0
-16 -52 0
-17 -51 0
-20 -55 0
-19 -55 0
-18 -59 0
-19 -59 0
-17 -59 0
-18 -58 0
-16 -59 0
-20 -60 0
-18 -56 0
-19 -57 0
-20 -57 0
-16 -57 0
-20 -59 0
-17 -60 0
-19 -60 0
-19 -56 0
-16 -60 0
-20 -58 0
-16 -58 0
-18 -64 0
-20 -65 0
-20 -63 0
-18 -65 0
-19 -61 0
-20 -61 0
-20 -62 0
-19 -62 0
-18 -61 0
-17 -62 0
-17 -63 0
-19 -64 0
-19 -65 0
-16 -61 0
-17 -61 0
-19 -63 0
-17 -64 0
-18 -96 0
-19 -98 0
-19 -96 0
-16 -98 0
-16 -96 0
-18 -98 0
-18 -97 0
-17 -97 0
-18 -100 0
-17 -99 0
-16 -100 0
-18 -99 0
-20 -100 0
-20 -99 0
-16 -99 0
-17 -96 0
-16 -97 0
-17 -103 0
-19 -102 0
-17 -101 0
-20 -104 0
-20 -101 0
-17 -105 0
-18 -101 0
-18 -102 0
-20 -105 0
-19 -104 0
-19 -105 0
-16 -104 0
-18 -104 0
-18 -103 0
-19 -101 0
-16 -103 0
-19 -103 0
-17 -128 0
-17 -126 0
-17 -130 0
-20 -129 0
-20 -126 0
-16 -127 0
-16 -130 0
-19 -129 0
-16 -126 0
-18 -130 0
-20 -130 0
-19 -127 0
-20 -128 0
-19 -128 0
-17 -127 0
-19 -126 0
-19 -130 0
-17 -145 0
-19 -145 0
-19 -142 0
-20 -145 0
-19 -143 0
-18 -141 0
-20 -144 0
-16 -145 0
-16 -142 0
-18 -142 0
-19 -144 0
-18 -143 0
-17 -141 0
-19 -141 0
-17 -143 0
-16 -143 0
-20 -142 0
-23 -33 0
-24 -31 0
-25 -31 0
-21 -34 0
-25 -35 0
-22 -35 0
-25 -34 0
-24 -33 0
-22 -33 0
-23 -35 0
-23 -31 0
-21 -33 0
-23 -34 0
-24 -35 0
-22 -32 0
-25 -33 0
-25 -32 0
-25 -43 0
-22 -44 0
-23 -41 0
-24 -41 0
-25 -42 0
-25 -41 0
-24 -42 0
-24 -43 0
-23 -42 0
-24 -44 0
-22 -43 0
-22 -41 0
-25 -45 0
-22 -45 0
-21 -44 0
-21 -45 0
-21 -43 0
-23 -65 0
-25 -64 0
-25 -62 0
-24 -63 0
-25 -63 0
-25 -61 0
-21 -65 0
-23 -64 0
-23 -62 0
-24 -65 0
-22 -63 0
-21 -64 0
-22 -62 0
-24 -62 0
-21 -63 0
-25 -65 0
-23 -63 0
-23 -69 0
-24 -70 0
-25 -67 0
-25 -70 0
-21 -68 0
-25 -66 0
-22 -68 0
-23 -67 0
-21 -66 0
-23 -68 0
-21 -67 0
-24 -66 0
-22 -69 0
-23 -70 0
-23 -66 0
-24 -67 0
-22 -67 0
-22 -78 0
-23 -79 0
-25 -77 0
-21 -78 0
-21 -77 0
-21 -76 0
-24 -79 0
-22 -76 0
-23 -80 0
-25 -79 0
-21 -80 0
-22 -79 0
-23 -76 0
-24 -80 0
-24 -76 0
-21 -79 0
-22 -80 0
-21 -86 0
-25 -89 0
-21 -88 0
-21 -87 0
-21 -90 0
-22 -86 0
-21 -89 0
-24 -89 0
-25 -88 0
-25 -87 0
-22 -90 0
-25 -86 0
-24 -86 0
-25 -90 0
-23 -89 0
-23 -86 0
-22 -89 0
-24 -98 0
-22 -97 0
-23 -99 0
-22 -96 0
-23 -98 0
-22 -100 0
-21 -100 0
-24 -99 0
-23 -96 0
-25 -96 0
-21 -97 0
-25 -100 0
-23 -100 0
-21 -98 0
-25 -97 0
-24 -100 0
-24 -96 0
-22 -101 0
-25 -103 0
-23 -103 0
-22 -105 0
-25 -105 0
-24 -105 0
-21 -105 0
-25 -102 0
-21 -104 0
-25 -101 0
-22 -103 0
-24 -103 0
-21 -102 0
-23 -102 0
-23 -105 0
-21 -101 0
-22 -104 0
-21 -134 0
-21 -132 0
-21 -131 0
-25 -134 0
-23 -131 0
-22 -132 0
-23 -132 0
-21 -133 0
-22 -134 0
-24 -135 0
-22 -131 0
-22 -135 0
-25 -132 0
-25 -135 0
-23 -133 0
-23 -134 0
-21 -135 0
-22 -142 0
-23 -144 0
-22 -141 0
-21 -142 0
-25 -143 0
-22 -143 0
-24 -145 0
-21 -143 0
-22 -145 0
-22 -144 0
-25 -145 0
-23 -145 0
-25 -141 0
-24 -141 0
-24 -143 0
-21 -145 0
-23 -141 0
-30 -32 0
-28 -31 0
-27 -35 0
-29 -34 0
-26 -34 0
-28 -32 0
-27 -31 0
-26 -32 0
-29 -32 0
-30 -31 0
-30 -34 0
-29 -31 0
-28 -35 0
-28 -33 0
-29 -33 0
-28 -34 0
-30 -35 0
-29 -48 0
-28 -48 0
-29 -50 0
-30 -46 0
-29 -46 0
-26 -47 0
-30 -50 0
-26 -49 0
-29 -47 0
-27 -47 0
-26 -48 0
-30 -47 0
-30 -48 0
-28 -49 0
-28 -50 0
-29 -49 0
-27 -48 0
-30 -77 0
-29 -79 0
-27 -78 0
-27 -79 0
-28 -80 0
-29 -80 0
-26 -76 0
-26 -80 0
-30 -79 0
-29 -77 0
-27 -76 0
-27 -80 0
-29 -78 0
-28 -77 0
-29 -76 0
-28 -79 0
-30 -80 0
-26 -111 0
-28 -115 0
-26 -112 0
-30 -115 0
-29 -115 0
-27 -111 0
-28 -114 0
-29 -111 0
-27 -115 0
-29 -112 0
-27 -113 0
-30 -111 0
-29 -113 0
-26 -114 0
-26 -113 0
-30 -113 0
-28 -113 0
-28 -126 0
-30 -129 0
-28 -129 0
-26 -127 0
-26 -128 0
-30 -127 0
-26 -130 0
-29 -130 0
-29 -127 0
-28 -130 0
-27 -127 0
-29 -129 0
-27 -129 0
-27 -126 0
-27 -130 0
-28 -127 0
-27 -128 0
-26 -132 0
-30 -134 0
-27 -134 0
-28 -133 0
-29 -131 0
-26 -133 0
-27 -131 0
-30 -132 0
-29 -134 0
-28 -132 0
-26 -131 0
-28 -131 0
-29 -132 0
-26 -134 0
-28 -134 0
-28 -135 0
-30 -131 0
-29 -148 0
-28 -147 0
-27 -150 0
-26 -149 0
-26 -148 0
-28 -148 0
-29 -149 0
-27 -147 0
-27 -146 0
-26 -150 0
-27 -149 0
-29 -146 0
-26 -146 0
-27 -148 0
-28 -146 0
-30 -147 0
-30 -149 0
-32 -38 0
-35 -36 0
-31 -40 0
-34 -37 0
-33 -40 0
-32 -40 0
-34 -39 0
-35 -40 0
-33 -39 0
-32 -39 0
-34 -36 0
-34 -40 0
-35 -37 0
-32 -37 0
-35 -38 0
-33 -37 0
-35 -39 0
-32 -44 0
-33 -43 0
-31 -43 0
-32 -43 0
-34 -41 0
-31 -41 0
-33 -41 0
-35 -42 0
-31 -45 0
-32 -41 0
-34 -42 0
-31 -44 0
-34 -45 0
-34 -43 0
-31 -42 0
-35 -45 0
-32 -42 0
-34 -59 0
-35 -58 0
-32 -57 0
-33 -60 0
-34 -60 0
-34 -56 0
-34 -58 0
-35 -60 0
-32 -58 0
-34 -57 0
-32 -60 0
-35 -56 0
-32 -56 0
-31 -56 0
-31 -60 0
-33 -57 0
-35 -57 0
-35 -86 0
-34 -89 0
-35 -89 0
-32 -88 0
-32 -89 0
-33 -89 0
-34 -90 0
-35 -90 0
-31 -89 0
-31 -87 0
-33 -87 0
-32 -86 0
-31 -88 0
-33 -86 0
-34 -87 0
-34 -86 0
-31 -90 0
-32 -119 0
-33 -120 0
-33 -118 0
-33 -116 0
-35 -119 0
-35 -117 0
-32 -118 0
-34 -120 0
-35 -116 0
-35 -120 0
-31 -120 0
-31 -118 0
-32 -120 0
-34 -116 0
-31 -117 0
-33 -119 0
-34 -117 0
-31 -140 0
-34 -137 0
-35 -138 0
-34 -138 0
-33 -140 0
-32 -140 0
-35 -139 0
-31 -137 0
-35 -136 0
-31 -136 0
-33 -137 0
-34 -139 0
-31 -139 0
-35 -140 0
-32 -136 0
-32 -137 0
-34 -140 0
-38 -44 0
-38 -42 0
-37 -41 0
-38 -41 0
-36 -41 0
-40 -42 0
-39 -45 0
-39 -43 0
-40 -43 0
-37 -45 0
-40 -44 0
-37 -44 0
-38 -45 0
-38 -43 0
-36 -44 0
-40 -41 0
-39 -44 0
-39 -104 0
-36 -104 0
-38 -103 0
-40 -101 0
-37 -103 0
-39 -102 0
-38 -102 0
-40 -104 0
-38 -105 0
-39 -101 0
-39 -105 0
-39 -103 0
-36 -101 0
-37 -105 0
-38 -104 0
-36 -103 0
-37 -104 0
-40 -109 0
-37 -107 0
-40 -106 0
-36 -106 0
-38 -106 0
-36 -107 0
-39 -107 0
-38 -110 0
-37 -109 0
-39 -110 0
-37 -106 0
-38 -109 0
-39 -108 0
-40 -110 0
-38 -107 0
-37 -108 0
-40 -108 0
-39 -116 0
-39 -120 0
-37 -116 0
-36 -119 0
-39 -118 0
-40 -120 0
-37 -120 0
-38 -119 0
-38 -120 0
-37 -117 0
-37 -119 0
-39 -117 0
-40 -116 0
-38 -116 0
-39 -119 0
-36 -118 0
-36 -117 0
-38 -133 0
-36 -131 0
-39 -131 0
-36 -135 0
-39 -133 0
-40 -134 0
-40 -135 0
-38 -131 0
-38 -135 0
-39 -132 0
-38 -132 0
-38 -134 0
-36 -132 0
-40 -133 0
-39 -135 0
-36 -133 0
-36 -134 0
-40 -144 0
-40 -145 0
-36 -145 0
-40 -142 0
-36 -141 0
-38 -144 0
-38 -141 0
-39 -141 0
-38 -143 0
-37 -144 0
-37 -143 0
-36 -143 0
-36 -142 0
-39 -144 0
-36 -144 0
-37 -142 0
-38 -145 0
-43 -48 0
-45 -49 0
-42 -46 0
-45 -47 0
-45 -46 0
-41 -48 0
-45 -48 0
-43 -46 0
-43 -50 0
-45 -50 0
-42 -47 0
-44 -46 0
-42 -50 0
-44 -49 0
-41 -46 0
-44 -47 0
-42 -48 0
-45 -65 0
-43 -62 0
-44 -64 0
-42 -65 0
-41 -63 0
-41 -61 0
-45 -62 0
-41 -65 0
-44 -62 0
-42 -61 0
-43 -64 0
-44 -63 0
-41 -62 0
-44 -65 0
-42 -63 0
-42 -64 0
-44 -61 0
-44 -75 0
-43 -71 0
-41 -72 0
-45 -71 0
-43 -72 0
-45 -73 0
-43 -73 0
-44 -72 0
-42 -74 0
-43 -75 0
-43 -74 0
-45 -75 0
-41 -73 0
-42 -75 0
-45 -74 0
-42 -72 0
-45 -72 0
-45 -99 0
-42 -98 0
-44 -98 0
-41 -99 0
-41 -98 0
-45 -97 0
-45 -98 0
-44 -97 0
-43 -98 0
-43 -99 0
-42 -99 0
-44 -100 0
-43 -96 0
-42 -100 0
-42 -96 0
-45 -100 0
-44 -99 0
-41 -112 0
-45 -113 0
-42 -113 0
-45 -111 0
-43 -114 0
-41 -113 0
-41 -111 0
-42 -112 0
-43 -115 0
-41 -115 0
-42 -114 0
-44 -114 0
-44 -113 0
-42 -115 0
-45 -114 0
-44 -115 0
-44 -112 0
-43 -116 0
-43 -119 0
-44 -119 0
-43 -120 0
-45 -119 0
-42 -119 0
-42 -120 0
-41 -116 0
-41 -117 0
-45 -116 0
-41 -118 0
-41 -119 0
-42 -118 0
-43 -118 0
-45 -118 0
-44 -120 0
-44 -116 0
-43 -123 0
-43 -121 0
-45 -121 0
-41 -121 0
-42 -124 0
-41 -124 0
-45 -123 0
-41 -122 0
-44 -124 0
-44 -125 0
-44 -122 0
-43 -122 0
-41 -123 0
-43 -125 0
-41 -125 0
-42 -123 0
-45 -125 0
-48 -58 0
-49 -56 0
-47 -56 0
-46 -59 0
-46 -58 0
-46 -60 0
-46 -57 0
-47 -59 0
-49 -60 0
-48 -56 0
-48 -60 0
-49 -57 0
-50 -59 0
-49 -59 0
-46 -56 0
-50 -57 0
-48 -57 0
-48 -73 0
-48 -74 0
-50 -72 0
-47 -72 0
-47 -75 0
-49 -75 0
-46 -73 0
-49 -72 0
-50 -75 0
-49 -71 0
-50 -71 0
-46 -72 0
-46 -75 0
-48 -75 0
-47 -73 0
-50 -73 0
-48 -71 0
-49 -92 0
-47 -92 0
-48 -93 0
-48 -95 0
-50 -93 0
-47 -91 0
-50 -95 0
-46 -92 0
-49 -95 0
-49 -91 0
-47 -95 0
-46 -95 0
-48 -94 0
-49 -93 0
-46 -91 0
-46 -94 0
-50 -91 0
-47 -99 0
-46 -97 0
-46 -96 0
-49 -100 0
-48 -97 0
-50 -96 0
-48 -100 0
-46 -99 0
-49 -98 0
-47 -96 0
-48 -98 0
-50 -99 0
-48 -99 0
-49 -99 0
-47 -97 0
-49 -97 0
-47 -98 0
-46 -130 0
-50 -130 0
-50 -126 0
-50 -129 0
-47 -126 0
-46 -128 0
-48 -130 0
-48 -127 0
-49 -126 0
-49 -127 0
-46 -126 0
-48 -128 0
-48 -126 0
-46 -129 0
-50 -128 0
-48 -129 0
-47 -129 0
-49 -131 0
-49 -134 0
-47 -131 0
-50 -132 0
-48 -132 0
-50 -133 0
-49 -132 0
-48 -135 0
-47 -133 0
-46 -133 0
-46 -132 0
-48 -131 0
-47 -135 0
-50 -135 0
-46 -135 0
-48 -133 0
-50 -134 0
-47 -145 0
-50 -141 0
-50 -142 0
-48 -143 0
-50 -143 0
-48 -141 0
-48 -142 0
-47 -144 0
-49 -143 0
-49 -145 0
-47 -142 0
-50 -145 0
-46 -145 0
-47 -143 0
-46 -144 0
-46 -142 0
-48 -145 0
-48 -147 0
-49 -147 0
-50 -150 0
-46 -146 0
-49 -148 0
-48 -146 0
-49 -146 0
-46 -148 0
-47 -148 0
-50 -146 0
-48 -148 0
-46 -147 0
-50 -148 0
-46 -150 0
-49 -149 0
-47 -146 0
-48 -150 0
-52 -64 0
-52 -61 0
-54 -65 0
-52 -65 0
-54 -61 0
-51 -62 0
-52 -62 0
-53 -61 0
-53 -62 0
-54 -63 0
-54 -62 0
-55 -63 0
-55 -61 0
-54 -64 0
-55 -62 0
-53 -63 0
-55 -64 0
-53 -67 0
-52 -70 0
-52 -69 0
-54 -70 0
-51 -69 0
-52 -68 0
-53 -68 0
-53 -70 0
-51 -70 0
-53 -66 0
-54 -66 0
-55 -67 0
-53 -69 0
-51 -68 0
-55 -68 0
-55 -70 0
-54 -68 0
-52 -72 0
-53 -74 0
-52 -74 0
-54 -71 0
-54 -72 0
-52 -73 0
-55 -71 0
-51 -72 0
-54 -73 0
-53 -73 0
-51 -71 0
-51 -74 0
-55 -72 0
-55 -74 0
-55 -75 0
-52 -75 0
-51 -73 0
-52 -96 0
-54 -96 0
-51 -100 0
-51 -97 0
-55 -98 0
-54 -99 0
-53 -97 0
-54 -98 0
-55 -97 0
-51 -96 0
-52 -99 0
-54 -100 0
-53 -99 0
-55 -99 0
-53 -100 0
-52 -97 0
-54 -97 0
-54 -132 0
-52 -132 0
-55 -132 0
-54 -134 0
-51 -132 0
-52 -131 0
-51 -135 0
-51 -133 0
-52 -134 0
-55 -133 0
-55 -135 0
-54 -135 0
-53 -135 0
-52 -133 0
-53 -133 0
-53 -131 0
-55 -131 0
-56 -62 0
-59 -65 0
-56 -63 0
-60 -61 0
-58 -63 0
-60 -62 0
-56 -61 0
-56 -64 0
-57 -65 0
-60 -63 0
-58 -62 0
-56 -65 0
-59 -63 0
-58 -65 0
-59 -64 0
-60 -64 0
-57 -63 0
-56 -71 0
-60 -75 0
-58 -72 0
-56 -75 0
-59 -72 0
-59 -71 0
-58 -73 0
-60 -74 0
-58 -74 0
-57 -72 0
-56 -72 0
-56 -73 0
-56 -74 0
-58 -75 0
-60 -72 0
-60 -71 0
-57 -71 0
-58 -96 0
-60 -98 0
-56 -96 0
-58 -99 0
-60 -97 0
-56 -98 0
-57 -96 0
-57 -100 0
-60 -100 0
-60 -96 0
-59 -96 0
-58 -97 0
-59 -99 0
-56 -97 0
-56 -99 0
-59 -97 0
-58 -98 0
-56 -109 0
-58 -110 0
-56 -106 0
-57 -109 0
-60 -106 0
-59 -110 0
-60 -109 0
-60 -107 0
-58 -106 0
-59 -109 0
-59 -107 0
-58 -108 0
-58 -109 0
-56 -108 0
-58 -107 0
-59 -108 0
-56 -110 0
-59 -128 0
-56 -126 0
-60 -129 0
-60 -128 0
-59 -126 0
-60 -126 0
-58 -128 0
-58 -129 0
-56 -127 0
-56 -129 0
-57 -126 0
-58 -127 0
-57 -127 0
-56 -128 0
-57 -128 0
-57 -130 0
-58 -130 0
-65 -81 0
-63 -82 0
-64 -81 0
-65 -85 0
-65 -83 0
-61 -81 0
-62 -83 0
-61 -82 0
-63 -85 0
-63 -84 0
-62 -81 0
-62 -85 0
-65 -82 0
-61 -85 0
-61 -84 0
-64 -82 0
-64 -84 0
-62 -91 0
-64 -91 0
-64 -95 0
-63 -93 0
-62 -93 0
-61 -92 0
-63 -95 0
-65 -91 0
-65 -94 0
-61 -91 0
-65 -93 0
-65 -95 0
-65 -92 0
-61 -95 0
-62 -94 0
-63 -91 0
-64 -93 0
-63 -109 0
-63 -106 0
-64 -110 0
-63 -107 0
-61 -107 0
-65 -108 0
-61 -108 0
-64 -108 0
-65 -107 0
-63 -108 0
-62 -106 0
-64 -106 0
-61 -110 0
-64 -109 0
-63 -110 0
-64 -107 0
-65 -106 0
-63 -137 0
-62 -136 0
-65 -139 0
-61 -139 0
-65 -140 0
-61 -137 0
-64 -139 0
-62 -140 0
-63 -136 0
-64 -137 0
-62 -137 0
-63 -140 0
-61 -140 0
-65 -136 0
-62 -138 0
-63 -138 0
-65 -137 0
-67 -72 0
-66 -74 0
-69 -71 0
-68 -75 0
-67 -73 0
-69 -73 0
-70 -73 0
-68 -74 0
-70 -75 0
-68 -72 0
-70 -72 0
-66 -72 0
-69 -72 0
-69 -74 0
-70 -71 0
-68 -73 0
-67 -75 0
-67 -100 0
-68 -97 0
-66 -98 0
-69 -98 0
-68 -100 0
-68 -98 0
-67 -97 0
-70 -100 0
-68 -96 0
-66 -100 0
-66 -99 0
-67 -99 0
-67 -98 0
-66 -96 0
-69 -100 0
-70 -96 0
-70 -97 0
-66 -117 0
-67 -117 0
-67 -116 0
-68 -119 0
-70 -120 0
-68 -116 0
-70 -118 0
-66 -120 0
-69 -118 0
-66 -119 0
-68 -120 0
-67 -120 0
-68 -117 0
-68 -118 0
-70 -119 0
-67 -118 0
-69 -116 0
-68 -138 0
-66 -139 0
-68 -136 0
-70 -138 0
-69 -140 0
-66 -136 0
-70 -136 0
-67 -136 0
-66 -137 0
-70 -140 0
-66 -140 0
-69 -139 0
-70 -139 0
-69 -136 0
-70 -137 0
-67 -137 0
-67 -140 0
-69 -145 0
-69 -141 0
-68 -145 0
-66 -144 0
-66 -143 0
-66 -145 0
-70 -141 0
-68 -144 0
-68 -141 0
-70 -143 0
-69 -143 0
-68 -142 0
-70 -145 0
-67 -142 0
-69 -142 0
-67 -141 0
-69 -144 0
-67 -148 0
-70 -149 0
-66 -147 0
-67 -146 0
-66 -148 0
-70 -150 0
-69 -148 0
-68 -148 0
-68 -146 0
-68 -149 0
-66 -149 0
-67 -150 0
-69 -149 0
-68 -147 0
-70 -147 0
-69 -147 0
-70 -148 0
-71 -78 0
-75 -76 0
-72 -77 0
-75 -80 0
-74 -79 0
-75 -78 0
-71 -77 0
-75 -77 0
-74 -76 0
-73 -76 0
-74 -77 0
-73 -77 0
-72 -79 0
-74 -78 0
-75 -79 0
-71 -80 0
-72 -80 0
-73 -125 0
-75 -125 0
-73 -122 0
-72 -122 0
-74 -123 0
-74 -124 0
-73 -124 0
-74 -121 0
-72 -124 0
-74 -122 0
-71 -123 0
-72 -121 0
-73 -123 0
-71 -124 0
-74 -125 0
-71 -125 0
-75 -122 0
-73 -131 0
-74 -131 0
-72 -133 0
-75 -133 0
-75 -134 0
-74 -132 0
-73 -132 0
-72 -135 0
-75 -131 0
-71 -132 0
-74 -134 0
-71 -134 0
-71 -133 0
-75 -132 0
-73 -133 0
-73 -134 0
-72 -131 0
-72 -140 0
-74 -138 0
-73 -136 0
-72 -138 0
-74 -136 0
-73 -137 0
-71 -139 0
-71 -138 0
-75 -139 0
-73 -140 0
-73 -139 0
-74 -139 0
-75 -140 0
-74 -140 0
-72 -139 0
-72 -137 0
-72 -136 0
-71 -149 0
-74 -149 0
-72 -147 0
-73 -150 0
-74 -150 0
-75 -150 0
-74 -147 0
-73 -148 0
-71 -146 0
-75 -147 0
-73 -146 0
-74 -148 0
-75 -146 0
-73 -149 0
-72 -146 0
-73 -147 0
-72 -150 0
-80 -90 0
-77 -87 0
-80 -87 0
-76 -89 0
-80 -86 0
-78 -86 0
-79 -90 0
-76 -90 0
-78 -89 0
-77 -89 0
-76 -86 0
-80 -88 0
-77 -88 0
-78 -88 0
-80 -89 0
-79 -86 0
-76 -87 0
-79 -111 0
-78 -113 0
-78 -111 0
-76 -112 0
-80 -111 0
-79 -112 0
-76 -111 0
-76 -115 0
-79 -115 0
-76 -113 0
-79 -114 0
-77 -114 0
-77 -112 0
-80 -115 0
-79 -113 0
-77 -113 0
-80 -114 0
-79 -117 0
-80 -117 0
-79 -116 0
-80 -120 0
-80 -116 0
-78 -120 0
-76 -116 0
-77 -120 0
-76 -118 0
-76 -120 0
-77 -116 0
-78 -117 0
-79 -120 0
-79 -118 0
-76 -117 0
-80 -119 0
-80 -118 0
-84 -88 0
-82 -87 0
-82 -89 0
-85 -86 0
-85 -90 0
-85 -89 0
-81 -86 0
-85 -88 0
-84 -90 0
-83 -90 0
-81 -88 0
-83 -88 0
-82 -90 0
-81 -90 0
-83 -89 0
-84 -89 0
-82 -88 0
-81 -106 0
-82 -106 0
-83 -109 0
-83 -107 0
-84 -108 0
-84 -107 0
-82 -108 0
-81 -108 0
-85 -109 0
-81 -107 0
-83 -110 0
-83 -106 0
-85 -106 0
-82 -110 0
-84 -110 0
-81 -109 0
-85 -107 0
-82 -125 0
-84 -122 0
-85 -121 0
-84 -125 0
-84 -124 0
-83 -125 0
-83 -122 0
-81 -124 0
-85 -123 0
-81 -125 0
-85 -125 0
-81 -123 0
-83 -124 0
-82 -122 0
-82 -124 0
-84 -123 0
-84 -121 0
-90 -114 0
-90 -112 0
-87 -111 0
-86 -112 0
-88 -111 0
-86 -111 0
-89 -115 0
-89 -112 0
-89 -114 0
-88 -113 0
-87 -114 0
-90 -115 0
-87 -113 0
-88 -115 0
-89 -111 0
-89 -113 0
-87 -112 0
-88 -119 0
-87 -116 0
-86 -117 0
-90 -116 0
-86 -119 0
-88 -120 0
-88 -116 0
-88 -117 0
-86 -120 0
-90 -117 0
-89 -117 0
-89 -118 0
-86 -118 0
-87 -120 0
-87 -117 0
-87 -119 0
-89 -120 0
-86 -128 0
-89 -127 0
-86 -130 0
-88 -127 0
-89 -129 0
-87 -126 0
-89 -130 0
-87 -128 0
-90 -130 0
-88 -126 0
-87 -130 0
-87 -129 0
-89 -128 0
-87 -127 0
-86 -127 0
-90 -129 0
-90 -126 0
-87 -132 0
-86 -132 0
-86 -135 0
-88 -134 0
-86 -133 0
-90 -133 0
-88 -135 0
-88 -132 0
-88 -133 0
-86 -134 0
-87 -135 0
-86 -131 0
-89 -135 0
-90 -134 0
-90 -135 0
-89 -134 0
-87 -131 0
-87 -144 0
-90 -145 0
-88 -144 0
-86 -145 0
-88 -143 0
-89 -145 0
-87 -143 0
-86 -141 0
-90 -143 0
-89 -143 0
-89 -141 0
-87 -145 0
-87 -141 0
-89 -144 0
-87 -142 0
-88 -142 0
-88 -145 0
-94 -99 0
-91 -100 0
-94 -96 0
-93 -99 0
-93 -100 0
-92 -96 0
-95 -96 0
-91 -96 0
-95 -97 0
-95 -98 0
-94 -100 0
-92 -99 0
-91 -98 0
-93 -98 0
-93 -97 0
-92 -100 0
-93 -96 0
-93 -145 0
-94 -141 0
-95 -145 0
-95 -144 0
-95 -141 0
-91 -145 0
-92 -142 0
-91 -143 0
-94 -142 0
-92 -141 0
-93 -144 0
-92 -143 0
-93 -142 0
-91 -142 0
-91 -141 0
-94 -143 0
-93 -141 0
-96 -102 0
-99 -101 0
-97 -104 0
-99 -104 0
-98 -101 0
-98 -105 0
-96 -103 0
-100 -104 0
-96 -101 0
-100 -101 0
-98 -104 0
-97 -102 0
-97 -105 0
-96 -105 0
-100 -103 0
-97 -101 0
-100 -102 0
-96 -106 0
-96 -110 0
-98 -106 0
-99 -106 0
-98 -108 0
-97 -110 0
-97 -108 0
-100 -108 0
-100 -110 0
-100 -109 0
-97 -106 0
-98 -109 0
-98 -110 0
-99 -110 0
-98 -107 0
-96 -109 0
-99 -108 0
-97 -111 0
-97 -113 0
-98 -115 0
-100 -113 0
-98 -113 0
-98 -111 0
-100 -115 0
-96 -112 0
-96 -113 0
-98 -112 0
-99 -112 0
-96 -111 0
-100 -112 0
-99 -111 0
-100 -111 0
-99 -115 0
-97 -114 0
-99 -141 0
-98 -145 0
-100 -142 0
-97 -141 0
-98 -141 0
-100 -144 0
-96 -143 0
-100 -145 0
-99 -142 0
-100 -143 0
-96 -141 0
-96 -144 0
-100 -141 0
-96 -142 0
-97 -145 0
-98 -142 0
-97 -144 0
-104 -106 0
-104 -109 0
-101 -108 0
-101 -107 0
-102 -107 0
-102 -106 0
-101 -106 0
-103 -108 0
-105 -107 0
-103 -106 0
-102 -110 0
-104 -110 0
-101 -110 0
-103 -109 0
-105 -108 0
-105 -109 0
-105 -110 0
-103 -112 0
-101 -114 0
-105 -111 0
-105 -114 0
-104 -113 0
-101 -113 0
-103 -114 0
-103 -111 0
-104 -114 0
-102 -112 0
-102 -115 0
-101 -112 0
-103 -113 0
-102 -111 0
-105 -115 0
-102 -114 0
-103 -115 0
-110 -113 0
-106 -112 0
-109 -111 0
-108 -113 0
-109 -114 0
-108 -115 0
-107 -113 0
-110 -111 0
-107 -112 0
-110 -115 0
-109 -115 0
-107 -115 0
-110 -114 0
-108 -112 0
-107 -111 0
-106 -113 0
-106 -114 0
-108 -116 0
-110 -118 0
-107 -120 0
-110 -119 0
-109 -116 0
-106 -118 0
-109 -118 0
-108 -117 0
-106 -116 0
-110 -116 0
-109 -120 0
-106 -117 0
-108 -120 0
-107 -118 0
-109 -117 0
-109 -119 0
-106 -120 0
-108 -129 0
-107 -128 0
-108 -126 0
-110 -128 0
-110 -129 0
-109 -129 0
-110 -127 0
-106 -130 0
-107 -127 0
-108 -127 0
-106 -126 0
-110 -126 0
-107 -130 0
-109 -126 0
-109 -128 0
-108 -130 0
-107 -126 0
-107 -131 0
-108 -132 0
-106 -135 0
-107 -135 0
-109 -133 0
-110 -135 0
-109 -134 0
-110 -133 0
-109 -131 0
-106 -132 0
-110 -134 0
-106 -131 0
-108 -131 0
-107 -132 0
-110 -132 0
-108 -135 0
-106 -134 0
-108 -140 0
-109 -137 0
-108 -138 0
-110 -138 0
-106 -140 0
-106 -136 0
-110 -140 0
-106 -137 0
-108 -136 0
-107 -139 0
-106 -138 0
-108 -139 0
-110 -139 0
-108 -137 0
-109 -139 0
-110 -136 0
-107 -137 0
-114 -138 0
-115 -137 0
-112 -140 0
-111 -137 0
-115 -140 0
-113 -139 0
-112 -136 0
-114 -140 0
-115 -139 0
-111 -138 0
-112 -137 0
-113 -138 0
-112 -138 0
-111 -140 0
-113 -136 0
-114 -137 0
-115 -136 0
-117 -133 0
-118 -131 0
-118 -132 0
-120 -132 0
-116 -132 0
-119 -134 0
-119 -132 0
-117 -134 0
-118 -133 0
-116 -134 0
-120 -135 0
-119 -131 0
-118 -135 0
-119 -133 0
-119 -135 0
-120 -134 0
-120 -131 0
-117 -143 0
-116 -145 0
-120 -143 0
-119 -142 0
-120 -144 0
-118 -144 0
-118 -143 0
-116 -142 0
-118 -142 0
-116 -143 0
-116 -144 0
-116 -141 0
-117 -141 0
-120 -142 0
-119 -145 0
-120 -145 0
-119 -144 0
-124 -145 0
-123 -142 0
-123 -143 0
-121 -145 0
-121 -144 0
-121 -143 0
-122 -142 0
-124 -142 0
-122 -144 0
-122 -141 0
-124 -141 0
-125 -142 0
-122 -145 0
-125 -144 0
-125 -141 0
-125 -145 0
-123 -144 0
-127 -147 0
-129 -146 0
-130 -146 0
-126 -148 0
-126 -146 0
-129 -148 0
-127 -148 0
-130 -149 0
-128 -147 0
-129 -149 0
-127 -149 0
-130 -147 0
-128 -146 0
-128 -149 0
-129 -147 0
-128 -148 0
-130 -148 0
-132 -149 0
-131 -147 0
-132 -150 0
-135 -150 0
-133 -150 0
-134 -150 0
-133 -148 0
-133 -149 0
-131 -146 0
-134 -149 0
-132 -147 0
-131 -148 0
-132 -148 0
-134 -147 0
-135 -147 0
-135 -149 0
-134 -148 0
